0 1983
1 1932
2 1788
3 1712
4 1667
5 1667
6 1667
7 1546
8 1546
9 1546
10 1544
11 1540
12 1533
13 1529
14 1471
15 1417
16 1411
17 1411
18 1411
19 1361
20 1361
21 1361
22 1361
23 1361
24 1359
25 1359
26 1359
27 1359
28 1329
29 1314
30 1312
31 1312
32 1312
33 1312
34 1312
35 1312
36 1312
37 1312
38 1312
39 1312
40 1312
41 1312
42 1312
43 1307
44 1305
45 1305
46 1303
47 1286
48 1282
49 1281
50 1281
51 1272
52 1253
53 1253
54 1249
55 1249
56 1249
57 1249
58 1249
59 1249
60 1249
61 1249
62 1249
63 1249
64 1240
65 1240
66 1240
67 1240
68 1240
69 1240
70 1240
71 1240
72 1240
73 1240
74 1240
75 1238
76 1238
77 1238
78 1238
79 1238
80 1238
81 1238
82 1238
83 1238
84 1238
85 1238
86 1238
87 1238
88 1238
89 1238
90 1238
91 1238
92 1238
93 1238
94 1238
95 1238
96 1238
97 1238
98 1238
99 1238
100 1238
101 1238
102 1238
103 1238
104 1238
105 1238
106 1238
107 1238
108 1238
109 1238
110 1238
111 1238
112 1238
113 1238
114 1238
115 1238
116 1238
117 1238
118 1229
119 1218
120 1218
121 1218
122 1218
123 1218
124 1218
125 1218
126 1218
127 1218
128 1218
129 1218
130 1218
131 1218
132 1218
133 1218
134 1218
135 1218
136 1218
137 1218
138 1218
139 1218
140 1218
141 1218
142 1218
143 1211
144 1211
145 1211
146 1211
147 1211
148 1147
149 1147
150 1147
151 1147
152 1147
153 1147
154 1147
155 1147
156 1147
157 1147
158 1147
159 1147
160 1147
161 1147
162 1147
163 1147
164 1147
165 1147
166 1147
167 1147
168 1147
169 1147
170 1147
171 1137
172 1137
173 1137
174 1137
175 1137
176 1137
177 1137
178 1137
179 1137
180 1137
181 1137
182 1137
183 1137
184 1137
185 1137
186 1137
187 1137
188 1137
189 1127
190 1127
191 1127
192 1127
193 1127
194 1127
195 1127
196 1127
197 1127
198 1127
199 1127
200 1127
201 1127
202 1127
203 1127
204 1127
205 1127
206 1127
207 1127
208 1127
209 1127
210 1127
211 1127
212 1127
213 1127
214 1127
215 1127
216 1127
217 1099
218 1099
219 1097
220 1097
221 1097
222 1097
223 1097
224 1097
225 1097
226 1097
227 1097
228 1097
229 1097
230 1097
231 1097
232 1097
233 1097
234 1097
235 1097
236 1097
237 1097
238 1097
239 1097
240 1097
241 1097
242 1097
243 1097
244 1097
245 1097
246 1097
247 1097
248 1097
249 1097
250 1097
251 1091
252 1091
253 1091
254 1091
255 1091
256 1091
257 1091
258 1091
259 1083
260 1083
261 1083
262 1083
263 1083
264 1083
265 1083
266 1083
267 1083
268 1083
269 1083
270 1083
271 1083
272 1083
273 1083
274 1083
275 1083
276 1083
277 1083
278 1083
279 1083
280 1039
281 1039
282 1039
283 1039
284 1039
285 1039
286 1039
287 1039
288 1039
289 1039
290 1039
291 1039
292 1039
293 1039
294 1039
295 1039
296 1039
297 1039
298 1039
299 1039
300 1039
301 1039
302 1039
303 1039
304 1039
305 1039
306 1039
307 1039
308 1039
309 1039
310 1039
311 1032
312 1032
313 1032
314 1032
315 1032
316 1032
317 1018
318 1018
319 1018
320 1018
321 1018
322 1018
323 1018
324 1018
325 1018
326 1018
327 1018
328 1018
329 1018
330 1018
331 1018
332 1018
333 1015
334 1015
335 1015
336 1015
337 1015
338 1015
339 1015
340 1015
341 1015
342 1015
343 1015
344 1015
345 1015
346 1015
347 1015
348 1015
349 1015
350 1015
351 1015
352 1015
353 1015
354 1015
355 1015
356 1015
357 1002
358 992
359 992
360 990
361 990
362 990
363 990
364 990
365 990
366 990
367 990
368 990
369 990
370 990
371 990
372 990
373 990
374 990
375 990
376 990
377 990
378 990
379 990
380 990
381 990
382 990
383 990
384 990
385 990
386 990
387 990
388 990
389 990
390 990
391 990
392 990
393 990
394 990
395 990
396 990
397 990
398 990
399 990
400 985
401 985
402 985
403 985
404 985
405 985
406 985
407 985
408 985
409 985
410 985
411 985
412 985
413 985
414 985
415 985
416 985
417 985
418 985
419 985
420 985
421 985
422 985
423 985
424 985
425 985
426 985
427 985
428 985
429 985
430 985
431 985
432 985
433 985
434 985
435 985
436 985
437 985
438 985
439 985
440 985
441 985
442 985
443 985
444 985
445 985
446 985
447 985
448 985
449 985
450 985
451 985
452 985
453 985
454 985
455 985
456 985
457 985
458 985
459 985
460 985
461 985
462 985
463 985
464 985
465 985
466 985
467 985
468 985
469 985
470 985
471 985
472 985
473 985
474 985
475 985
476 985
477 985
478 985
479 985
480 985
481 985
482 985
483 985
484 985
485 985
486 985
487 985
488 985
489 985
490 985
491 985
492 985
493 985
494 985
495 985
496 985
497 985
498 985
499 985
500 985
501 985
502 985
503 985
504 985
505 985
506 985
507 985
508 985
509 985
510 985
511 985
512 985
513 985
514 985
515 985
516 985
517 985
518 985
519 985
520 985
521 985
522 985
523 985
524 985
525 985
526 985
527 985
528 985
529 985
530 985
531 985
532 985
533 985
534 985
535 985
536 985
537 985
538 985
539 985
540 985
541 985
542 985
543 985
544 985
545 985
546 985
547 985
548 985
549 985
550 985
551 985
552 985
553 985
554 985
555 985
556 985
557 985
558 985
559 985
560 985
561 985
562 985
563 985
564 985
565 985
566 985
567 985
568 985
569 985
570 985
571 985
572 985
573 985
574 985
575 985
576 985
577 985
578 985
579 985
580 985
581 985
582 985
583 985
584 985
585 985
586 985
587 985
588 985
589 985
590 985
591 985
592 985
593 985
594 985
595 985
596 985
597 985
598 985
599 985
600 985
601 985
602 985
603 985
604 985
605 985
606 985
607 985
608 985
609 985
610 985
611 985
612 985
613 985
614 985
615 985
616 985
617 985
618 985
619 985
620 985
621 985
622 985
623 985
624 985
625 985
626 985
627 985
628 985
629 985
630 985
631 985
632 985
633 985
634 985
635 985
636 985
637 985
638 985
639 985
640 985
641 985
642 985
643 985
644 985
645 985
646 985
647 985
648 985
649 985
650 985
651 985
652 985
653 985
654 985
655 985
656 985
657 985
658 985
659 931
660 931
661 931
662 931
663 931
664 931
665 931
666 931
667 931
668 931
669 931
670 931
671 931
672 931
673 931
674 931
675 931
676 931
677 931
678 931
679 931
680 931
681 931
682 931
683 931
684 931
685 931
686 931
687 931
688 931
689 931
690 931
691 931
692 931
693 931
694 931
695 931
696 931
697 931
698 931
699 931
700 931
701 931
702 931
703 931
704 931
705 931
706 931
707 931
708 931
709 931
710 931
711 931
712 931
713 931
714 931
715 931
716 931
717 931
718 931
719 931
720 931
721 931
722 931
723 931
724 931
725 931
726 931
727 931
728 931
729 931
730 931
731 931
732 931
733 931
734 931
735 931
736 931
737 931
738 922
739 922
740 922
741 922
742 922
743 922
744 922
745 922
746 922
747 922
748 922
749 922
750 922
751 922
752 922
753 922
754 922
755 922
756 922
757 922
758 922
759 922
760 922
761 922
762 922
763 922
764 922
765 922
766 922
767 922
768 922
769 922
770 922
771 922
772 922
773 922
774 922
775 922
776 922
777 922
778 922
779 922
780 922
781 922
782 922
783 922
784 922
785 922
786 922
787 922
788 922
789 922
790 922
791 904
792 904
793 904
794 904
795 904
796 904
797 904
798 904
799 904
800 904
801 904
802 904
803 904
804 904
805 904
806 904
807 904
808 904
809 904
810 904
811 904
812 904
813 904
814 904
815 904
816 904
817 904
818 904
819 904
820 904
821 904
822 904
823 904
824 904
825 904
826 897
827 897
828 897
829 897
830 897
831 897
832 897
833 897
834 896
835 896
836 896
837 896
838 896
839 896
840 896
841 896
842 896
843 896
844 896
845 896
846 896
847 896
848 896
849 896
850 896
851 896
852 896
853 896
854 896
855 896
856 896
857 896
858 896
859 896
860 896
861 896
862 896
863 896
864 896
865 896
866 896
867 896
868 896
869 896
870 896
871 896
872 896
873 896
874 896
875 896
876 896
877 896
878 896
879 896
880 896
881 896
882 896
883 896
884 896
885 896
886 896
887 896
888 896
889 896
890 896
891 896
892 896
893 896
894 896
895 896
896 896
897 896
898 896
899 896
900 896
901 896
902 896
903 896
904 896
905 896
906 896
907 896
908 896
909 896
910 896
911 896
912 896
913 896
914 896
915 896
916 896
917 896
918 896
919 896
920 896
921 896
922 896
923 896
924 896
925 896
926 896
927 896
928 896
929 896
930 896
931 896
932 896
933 896
934 896
935 896
936 896
937 896
938 896
939 896
940 896
941 896
942 896
943 896
944 896
945 896
946 896
947 896
948 896
949 896
950 896
951 896
952 896
953 896
954 896
955 896
956 896
957 896
958 896
959 896
960 896
961 896
962 896
963 896
964 896
965 896
966 896
967 896
968 896
969 896
970 896
971 896
972 896
973 896
974 896
975 896
976 896
977 896
978 896
979 896
980 896
981 896
982 896
983 896
984 896
985 896
986 896
987 896
988 896
989 896
990 896
991 896
992 896
993 896
994 896
995 896
996 896
997 896
998 896
999 896
Best: [[15,25,19,9,12,5,24,7],
       [27,8,22,20,18,32,14],
       [28,11,26,6],
       [21,30,16,23,10,29,3,4],
       [31,17,2,13]], fitness: 896
